test                                    
   1.00000000000000     
     5.0592100861978837    0.0000000000000000    0.0000000000000000
    -2.5296050430989419    4.3814044577298263    0.0000000000000000
     0.0000000000000000    0.0000000000000000   30.0000000000000000
   B 
     8
Direct
  0.3311767150228775  0.0000000000000000  0.5000000000000000
  0.6688232848771207  0.0000000000000000  0.5000000000000000
  0.0000000000000000  0.3311767150228775  0.5000000000000000
  0.0000000000000000  0.6688232848771207  0.5000000000000000
  0.3311767150228775  0.3311767150228775  0.5000000000000000
  0.3333333332999970  0.6666666666000012  0.5000000000000000
  0.6666666666000012  0.3333333332999970  0.5000000000000000
  0.6688232848771207  0.6688232848771207  0.5000000000000000
 
  0.00000000E+00  0.00000000E+00  0.00000000E+00
  0.00000000E+00  0.00000000E+00  0.00000000E+00
  0.00000000E+00  0.00000000E+00  0.00000000E+00
  0.00000000E+00  0.00000000E+00  0.00000000E+00
  0.00000000E+00  0.00000000E+00  0.00000000E+00
  0.00000000E+00  0.00000000E+00  0.00000000E+00
  0.00000000E+00  0.00000000E+00  0.00000000E+00
  0.00000000E+00  0.00000000E+00  0.00000000E+00
